99782.84
89 80 71 79 78 70 76 77 81 88 100 92 93 82 87 83 69 75 74 68 73 72 85 97 96 98 86 84 95 94 99 104 117 121 133 128 129 109 108 105 107 106 119 131 130 118 120 132 3 5 4 16 29 28 30 37 39 38 50 63 62 49 51 67 61 40 41 60 66 52 48 36 31 26 27 17 15 6 7 2 14 18 19 8 9 25 24 43 42 53 59 58 65 57 56 64 55 46 34 45 44 54 47 35 32 23 22 33 21 12 0 11 10 20 13 1 134 126 127 116 110 111 103 115 122 125 124 135 123 114 102 113 112 91 90 101